50
150
100
99
95
94
87
85
85
83
81
81
80
80
77
76
75
74
73
73
72
66
63
60
52
50
47
45
44
43
39
39
38
38
35
34
33
32
25
25
23
20
17
15
15
14
12
11
10
10
8
8
